43643
0 1 0 0 0 0 0 0 1 0 0 0 1 1 0 1 1 0 0 1 0 0 1 0 0 1 0 0 0 0 
19 12 15 15 15 25 15 25 22 15 8 12 13 1 22 25 13 19 16 16 12 16 13 16 1 25 22 12 8 16 19 8 19 16 19 25 8 13 15 15 12 8 12 12 13 19 1 15 19 8 16 16 16 16 13 12 25 1 16 19 12 15 25 19 13 25 15 13 25 12 19 12 12 13 19 13 8 19 8 16 8 15 8 25 8 13 25 13 16 25 12 25 25 19 1 13 25 19 19 25 12 15 25 25 8 16 19 15 16 8 8 19 16 12 25 8 12 12 13 13 8 12 25 12 8 16 16 25 1 19 19 15 25 15 8 13 13 13 12 8 12 25 19 12 12 15 16 15 16 19 16 8 8 22 1 22 16 16 1 13 8 25 13 15 15 22 1 8 1 15 13 1 15 13 19 16 16 19 8 19 15 15 15 12 19 8 19 8 16 15 16 16 25 25 25 12 12 15 13 12 
